436,887
948,542
727,264
998,-30
681,376
795,369
633,371
633,441
417,42
858,59
227,175
721,486
448,639
1093,107
1080,535
702,427
635,110
681,556
231,406
668,380
947,599
539,360
512,529
956,131
708,321
737,761
364,-30
293,688
1001,569
875,265
1066,467
841,487
735,300
450,860
200,651
561,776
649,613
